c Sudoku solution
p cnf 729 0
112 0
147 0
196 0
237 0
265 0
278 0
351 0
366 0
393 0
444 0
468 0
511 0
546 0
552 0
619 0
653 0
667 0
641 0
455 0
569 0
725 0
315 0
813 0
882 0
929 0
943 0
845 0
163 0
223 0
216 0
417 0
827 0
121 0
971 0
998 0
985 0
957 0
936 0
732 0
831 0
761 0
864 0
962 0
899 0
876 0
756 0
749 0
858 0
718 0
914 0
433 0
348 0
242 0
138 0
324 0
339 0
372 0
387 0
528 0
479 0
175 0
674 0
534 0
635 0
595 0
583 0
577 0
773 0
784 0
797 0
189 0
154 0
259 0
281 0
294 0
486 0
491 0
692 0
688 0
422 0
626 0
